6 10 138
2 2 1 1 1 6 44 46 64 
2 5 1 6 1 8 30 30 50 
2 4 1 1 2 34 62 72 94 
2 3 1 2 2 22 50 50 90 
2 6 2 3 2 52 76 76 116 
2 5 2 4 2 34 66 72 112 
3 5 3 2 3 4 3 78 94 94 120 120 138 
3 6 3 1 3 3 3 82 102 104 118 118 136 
16 5 1 6 1 6 1 4 1 4 1 2 2 2 2 3 2 1 2 1 2 6 3 6 3 1 3 1 3 3 3 3 3 0 8 8 14 14 22 22 28 28 34 40 44 44 46 50 56 56 64 64 72 72 80 80 82 88 94 94 104 114 116 116 118 
16 2 1 3 1 3 1 5 2 5 2 1 1 1 1 6 2 6 2 4 2 4 2 5 3 2 3 2 3 4 3 4 3 0 6 6 14 14 22 26 30 30 34 34 40 40 46 48 50 50 52 54 62 62 72 72 78 88 90 90 92 102 112 112 118 
